c 
c G(k,n,p) graph
c graph gen seed     : 32567
c number of vertices : 30
c max number of edges: 500
c number of classes  : 2
c edge density       : 0.200000
c edge probability   : 0.400000
c data structure     : sparse
c
c           Graph Stats
c number of vertices  : 30
c nonisolated vertices: 30
c number of edges     : 93
c edge density        : 0.213793
c max degree          : 11
c avg degree          : 6.20
c min degree          : 2
p col 30 93
e 1 26
e 1 22
e 1 13
e 1 12
e 1 7
e 1 4
e 1 3
e 2 29
e 2 28
e 2 22
e 2 17
e 2 15
e 3 30
e 3 27
e 3 24
e 3 14
e 3 9
e 4 25
e 4 24
e 4 21
e 4 11
e 4 10
e 4 9
e 4 8
e 5 28
e 5 12
e 6 21
e 6 14
e 6 10
e 6 9
e 7 30
e 7 25
e 7 16
e 7 14
e 7 11
e 8 29
e 8 22
e 8 20
e 8 18
e 9 29
e 9 26
e 9 22
e 9 20
e 9 18
e 9 15
e 9 13
e 9 12
e 10 26
e 10 19
e 10 17
e 10 15
e 10 13
e 11 28
e 11 19
e 11 12
e 12 25
e 12 14
e 13 30
e 13 27
e 13 25
e 14 29
e 14 28
e 14 18
e 15 30
e 15 27
e 15 23
e 15 21
e 16 28
e 16 26
e 16 22
e 16 20
e 16 18
e 17 30
e 17 27
e 17 25
e 17 24
e 17 23
e 17 21
e 18 24
e 19 24
e 19 21
e 20 30
e 21 29
e 21 28
e 21 26
e 21 22
e 22 25
e 22 23
e 23 29
e 24 28
e 26 30
e 26 27
e 29 30
